Route #1: 11 7 33 28 44 32 23 40 38 34
Route #2: 8 47 46 20 49 48 15 26 19 17 13 1 30 10 5 16 45 35
Route #3: 3 21 18 22 12 6 41 14
Route #4: 39 29 31 50 43 2 9 4 24 37 36 42 27 25
Cost 5230474.000000